c ---- [ banner ] ------------------------------------------------------------
c
c Kissat SAT Solver
c 
c Copyright (c) 2021-2023 Armin Biere University of Freiburg
c Copyright (c) 2019-2021 Armin Biere Johannes Kepler University Linz
c 
c Version 3.1.1 unknown
c gcc (Ubuntu 9.4.0-1ubuntu1~20.04.2) 9.4.0 -W -Wall -O3 -DNDEBUG
c Mon Feb 26 18:18:52 CET 2024 Linux OptiPlex-7080 5.15.0-88-generic x86_64
c
c ---- [ parsing ] -----------------------------------------------------------
c
c opened and reading DIMACS file:
c
c   /home/oliveras/SAT-comp-2023//e51a98d78f61103e0672579e87cfd7e5-satcoin-genesis-UNSAT-11400.cnf
c
c parsed 'p cnf 134781 648806' header
c closing input after reading 14384710 bytes (14 MB)
c finished parsing after 0.21 seconds
c
c ---- [ options ] -----------------------------------------------------------
c
c --seed=1                         (different from default '0')
c
c ---- [ solving ] -----------------------------------------------------------
c
c  seconds switched conflicts    irredundant  variables
c         MB reductions redundant        trail      remaining
c          level restarts    binary         glue
c
c *  0.21 46 0 0 0  0   0   0 51675 596986 0% 0 125485 93%
c {  0.21 46 0 0 0  0   0   0 51675 596986 0% 0 125485 93%
c i  0.21 46 5 0 0  0   1   0 51675 596986 0% 0 125475 93%
c -  0.56 54 349 0 1 275 1002 440 51098 596986 4% 14 125475 93%
c }  0.56 54 349 1 1 275 1002 440 51098 596986 4% 14 125475 93%
c [  0.56 54 0 1 1 275 1002 440 51098 596986 0% 0 125475 93%
c B  0.56 54 0 1 1 275 1002 440 51098 596986 0% 0 125475 93%
c ]  0.82 54 734 2 1 275 1145 577 51103 596986 23% 22 125475 93%
c {  0.82 54 349 2 1 275 1145 577 51103 596986 4% 14 125475 93%
c i  0.86 54 442 2 1 291 1914 1262 51148 596986 3% 13 125473 93%
c -  0.87 54 434 2 2 298 2004 795 51146 596986 3% 13 125473 93%
c }  0.88 54 423 3 2 301 2146 918 51147 596986 4% 13 125473 93%
c [  0.88 54 734 3 2 301 2146 918 51147 596986 23% 22 125473 93%
c W  0.97 57 734 3 2 301 2146 918 51147 596005 23% 22 125473 93%
c ]  1.03 57 679 4 2 301 2195 967 51147 596005 19% 112 125473 93%
c {  1.03 57 423 4 2 301 2195 967 51147 596005 4% 13 125473 93%
c i  1.03 57 428 4 2 301 2201 972 51147 596005 4% 13 125472 93%
c i  1.03 57 431 4 2 301 2203 973 51147 596005 4% 13 125466 93%
c d  9.19 63 337 4 2 448 3377 2062 51627 595460 11% 12 125437 93%
c d  9.21 63 337 4 2 448 3377 2062 51255 595459 11% 12 125251 93%
c
c  seconds   switched conflicts       irredundant    variables
c         MB  reductions   redundant           trail       remaining
c           level restarts        binary           glue
c
c b  9.23 63 337 4 2 448 3377 2062 51255 595459 11% 12 125236 93%
c u  9.26 63 337 4 2 448 3377 2058 51259 595459 11% 12 125236 93%
c v  9.35 63 337 4 2 448 3377 2058 51259 595459 11% 12 125236 93%
c w  9.95 65 337 4 2 448 3377 2249 51675 593642 11% 12 124911 93%
c = 10.49 66 337 4 2 448 3377 2249 56582 592453 11% 12 122532 91%
c d 10.53 66 337 4 2 448 3377 2239 51955 592033 11% 12 122531 91%
c d 10.55 66 337 4 2 448 3377 2239 51939 592033 11% 12 122523 91%
c t 10.58 66 337 4 2 448 3377 2239 47769 592033 11% 12 122523 91%
c b 10.59 66 337 4 2 448 3377 2239 47769 592033 11% 12 122520 91%
c i 10.59 66 337 4 2 448 3377 2239 47769 592033 11% 12 122520 91%
c - 10.61 66 382 4 3 448 3419 1476 47222 592033 11% 12 122520 91%
c } 10.68 66 697 5 3 450 4547 2544 47237 592033 9% 11 122520 91%
c [ 10.68 66 679 5 3 450 4547 2544 47237 592033 19% 112 122520 91%
c I 10.68 66 679 5 3 450 4547 2544 47237 592033 19% 112 122520 91%
c - 11.04 66 542 5 4 450 5151 1957 47237 592033 11% 69 122520 91%
c b 11.48 66 527 5 4 452 6748 3520 47251 592004 8% 71 122519 91%
c u 11.52 66 527 5 4 452 6748 3442 47329 592004 8% 71 122519 91%
c v 11.60 66 527 5 4 452 6748 3442 47329 592004 8% 71 122519 91%
c w 11.79 66 527 5 4 452 6748 3519 48121 591131 8% 71 122519 91%
c = 11.90 66 527 5 4 452 6748 3519 48461 591099 8% 71 122346 91%
c
c  seconds   switched conflicts       irredundant   variables
c         MB  reductions   redundant          trail       remaining
c           level restarts        binary          glue
c
c d 11.93 66 527 5 4 452 6748 3512 48126 591058 8% 71 122341 91%
c t 11.96 66 527 5 4 452 6748 3512 47217 591058 8% 71 122341 91%
c - 12.03 66 486 5 5 452 7151 2012 47213 591058 7% 76 122341 91%
c B 12.14 66 425 5 5 452 8318 3175 47215 591058 6% 81 122341 91%
c - 12.20 66 409 5 6 453 9388 2081 47215 591058 5% 68 122341 91%
c - 12.32 66 369 5 7 455 11837 2384 47216 591058 5% 54 122341 91%
c d 12.49 66 353 5 7 456 13758 4229 47212 591058 5% 50 122339 91%
c u 12.54 66 353 5 7 456 13758 4208 47233 591058 5% 50 122339 91%
c w 12.78 68 353 5 7 456 13758 4209 47946 590344 5% 50 122339 91%
c = 12.85 68 353 5 7 456 13758 4209 48040 590344 5% 50 122292 91%
c d 12.89 68 353 5 7 456 13758 4209 47946 590344 5% 50 122292 91%
c t 12.92 68 353 5 7 456 13758 4209 47161 590344 5% 50 122292 91%
c W 13.32 69 352 5 7 456 13848 4296 47161 590344 5% 50 122292 91%
c - 13.38 69 348 5 8 456 14485 2627 47161 590344 5% 50 122292 91%
c 2 13.61 69 336 5 8 456 16889 5015 46849 590344 4% 51 122292 91%
c s 13.74 69 336 5 8 456 16889 5015 47120 587610 4% 51 122292 91%
c e 14.70 77 336 5 8 456 16889 5015 8316 567224 4% 51 83474 62%
c 2 14.70 77 336 5 8 456 16889 5015 8312 567224 4% 51 83474 62%
c s 14.76 77 336 5 8 456 16889 5015 8503 550452 4% 51 83474 62%
c e 14.89 77 336 5 8 456 16889 5015 8028 550534 4% 51 83211 62%
c
c  seconds   switched  conflicts      irredundant   variables
c         MB  reductions    redundant         trail      remaining
c           level restarts         binary         glue
c
c ^ 14.89 77 336 5 8 456 16889 5015 8028 550534 4% 51 83211 62%
c - 15.87 74 333 5 9 457 17313 1268 8028 550534 5% 51 83211 62%
c ] 19.31 74 328 6 9 457 18038 1991 8028 550534 6% 55 83211 62%
c { 19.31 74 697 6 9 457 18038 1991 8028 550534 9% 11 83211 62%
c i 19.78 74 621 6 9 808 19375 3249 8054 550533 8% 12 83209 62%
c i 19.80 74 630 6 9 808 19843 3686 8071 550532 7% 12 83199 62%
c - 19.83 74 632 6 10 808 20313 2417 8054 550532 7% 11 83199 62%
c } 19.94 74 756 7 10 836 22107 4110 8085 550532 6% 11 83199 62%
c [ 19.94 74 328 7 10 836 22107 4110 8085 550532 6% 55 83199 62%
c O 19.94 74 328 7 10 836 22107 4110 8085 550532 6% 55 83199 62%
c ] 20.58 74 325 8 10 837 23449 5425 8086 550532 6% 54 83199 62%
c { 20.58 74 756 8 10 837 23449 5425 8086 550532 6% 11 83199 62%
c - 20.60 74 758 8 11 839 23476 3419 8089 550532 6% 11 83199 62%
c b 21.34 74 703 8 11 1146 24640 4507 8214 550273 6% 13 83198 62%
c u 21.41 74 703 8 11 1146 24640 4487 8234 550273 6% 13 83198 62%
c v 21.79 74 703 8 11 1146 24640 4477 8244 550273 6% 13 83198 62%
c w 22.22 75 703 8 11 1146 24640 7073 8288 547623 6% 13 83196 62%
c = 22.85 75 703 8 11 1146 24640 7073 8364 547591 6% 13 83159 62%
c d 22.88 75 703 8 11 1146 24640 7064 8260 547581 6% 13 83159 62%
c t 22.92 75 703 8 11 1146 24640 7064 8186 547581 6% 13 83159 62%
c
c  seconds   switched    conflicts      irredundant   variables
c         MB   reductions     redundant         trail      remaining
c           level   restarts         binary         glue
c
c i 22.93 75 703 8 11 1146 24640 7064 8186 547581 6% 13 83159 62%
c i 24.65 75 760 8 11 1226 25750 8101 8201 547581 6% 13 83157 62%
c - 25.19 75 760 8 12 1243 26794 6853 8195 547581 6% 12 83157 62%
c } 25.50 75 702 9 12 1243 29608 9618 8200 547581 5% 12 83157 62%
c [ 25.50 75 325 9 12 1243 29608 9618 8200 547581 6% 54 83157 62%
c - 25.57 75 339 9 13 1243 30259 7558 8200 547581 6% 55 83157 62%
c B 27.02 75 342 9 13 1245 31869 9161 8202 547581 6% 58 83157 62%
c s 27.15 75 339 9 13 1245 33405 10683 8221 546129 6% 57 83157 62%
c e 27.67 75 339 9 13 1245 33405 10683 4826 550091 6% 57 81236 60%
c s 27.70 75 339 9 13 1245 33405 10683 4867 549081 6% 57 81236 60%
c e 27.73 75 339 9 13 1245 33405 10683 4866 549084 6% 57 81234 60%
c ^ 27.73 75 339 9 13 1245 33405 10683 4866 549084 6% 57 81234 60%
c - 28.20 75 337 9 14 1246 33865 6783 4866 549084 6% 58 81234 60%
c ] 29.13 75 336 10 14 1246 34024 6942 4866 549084 6% 58 81234 60%
c { 29.13 75 702 10 14 1246 34024 6942 4866 549084 5% 12 81234 60%
c - 34.89 77 572 10 15 1289 37606 7920 4893 549084 6% 11 81234 60%
c u 37.24 77 572 10 15 1319 39326 9558 4945 549071 6% 11 81234 60%
c v 37.91 77 572 10 15 1319 39326 9558 4945 549071 6% 11 81234 60%
c w 38.41 77 572 10 15 1319 39326 9792 4953 548829 6% 11 81234 60%
c d 39.02 77 572 10 15 1319 39326 9792 4951 548829 6% 11 81233 60%
c
c  seconds    switched    conflicts      irredundant   variables
c         MB    reductions     redundant         trail      remaining
c           level    restarts         binary         glue
c
c t 39.07 77 572 10 15 1319 39326 9792 4915 548829 6% 11 81233 60%
c - 56.20 77 526 10 16 1513 41478 9584 4927 548829 9% 11 81233 60%
c } 56.31 77 498 11 16 1513 42652 10711 4931 548829 9% 11 81233 60%
c [ 56.31 77 336 11 16 1513 42652 10711 4931 548829 6% 58 81233 60%
c W 59.53 81 333 11 16 1514 44091 12149 4931 548829 7% 62 81233 60%
c - 62.50 81 330 11 17 1515 45478 9997 4934 548829 7% 63 81233 60%
c - 67.37 81 323 11 18 1518 49601 9745 4946 548829 8% 64 81233 60%
c ] 77.84 81 319 12 18 1519 51576 11711 4949 548829 10% 72 81233 60%
c { 77.84 81 498 12 18 1519 51576 11711 4949 548829 9% 11 81233 60%
c - 78.93 81 527 12 19 1797 53843 10077 4964 548829 8% 11 81233 60%
c - 81.91 81 450 12 20 1893 58202 10664 4980 548829 8% 11 81233 60%
c u 82.39 81 450 12 20 1893 58226 10676 4992 548829 8% 11 81233 60%
c v 83.73 81 450 12 20 1893 58226 10671 4997 548829 8% 11 81233 60%
c w 84.43 81 450 12 20 1893 58226 10774 5025 548698 8% 11 81233 60%
c = 85.06 81 450 12 20 1893 58226 10774 5027 548698 8% 11 81232 60%
c d 85.09 81 450 12 20 1893 58226 10774 5025 548698 8% 11 81232 60%
c t 85.13 81 450 12 20 1893 58226 10774 4991 548698 8% 11 81232 60%
c - 95.17 81 529 12 21 1972 62675 12061 5010 548698 8% 11 81232 60%
c } 95.20 81 538 13 21 1972 63055 12432 5010 548698 8% 11 81232 60%
c [ 95.20 81 319 13 21 1972 63055 12432 5010 548698 10% 72 81232 60%
c
c  seconds    switched    conflicts       irredundant    variables
c         MB    reductions      redundant          trail      remaining
c           level    restarts          binary          glue
c
c I 95.20 81 319 13 21 1972 63055 12432 5010 548698 10% 72 81232 60%
c ] 107.99 81 318 14 21 1973 65102 14474 5014 548698 12% 84 81232 60%
c { 107.99 81 538 14 21 1973 65102 14474 5014 548698 8% 11 81232 60%
c - 116.22 83 527 14 22 2419 67257 12899 5042 548698 9% 12 81232 60%
c e 129.65 61 542 14 22 2528 69163 14702 4555 549723 10% 12 80944 60%
c s 129.65 61 542 14 22 2528 69163 14702 4565 549448 10% 12 80944 60%
c e 129.68 61 542 14 22 2528 69163 14702 4563 549455 10% 12 80941 60%
c ^ 129.68 61 542 14 22 2528 69163 14702 4563 549455 10% 12 80941 60%
c - 193.96 77 498 14 23 2528 71947 13045 4563 549455 17% 12 80941 60%
c - 293.06 77 435 14 24 2528 76743 14637 4567 549455 26% 11 80941 60%
c } 359.70 77 402 15 24 2528 79818 17696 4568 549455 31% 11 80941 60%
c [ 359.70 77 318 15 24 2528 79818 17696 4568 549455 12% 84 80941 60%
c B 365.69 77 320 15 24 2529 80857 18735 4568 549455 13% 91 80941 60%
c u 368.53 77 320 15 24 2529 81481 19297 4630 549455 13% 94 80941 60%
c v 370.00 77 320 15 24 2529 81481 16614 7313 549455 13% 94 80941 60%
c w 370.77 77 320 15 24 2529 81481 16792 7339 549251 13% 94 80941 60%
c = 371.40 77 320 15 24 2529 81481 16792 7341 549251 13% 94 80940 60%
c d 371.43 77 320 15 24 2529 81481 16791 7338 549251 13% 94 80940 60%
c t 371.49 77 320 15 24 2529 81481 16791 4576 549251 13% 94 80940 60%
c - 371.52 77 320 15 25 2529 81642 13564 4578 549251 13% 94 80940 60%
c
c  seconds     switched    conflicts       irredundant    variables
c          MB    reductions      redundant          trail      remaining
c            level    restarts          binary          glue
c
c - 387.85 77 316 15 26 2533 86643 14103 4578 549251 14% 99 80940 60%
c - 403.78 77 310 15 27 2534 91742 14471 4581 549251 15% 100 80940 60%
c - 414.62 77 305 15 28 2538 96938 14937 4582 549251 15% 100 80940 60%
c W 436.47 77 303 15 28 2541 101768 19692 4584 549251 16% 105 80940 60%
c - 438.96 77 303 15 29 2541 102230 15469 4584 549251 16% 106 80940 60%
c - 468.36 81 302 15 30 2542 107615 15632 4584 549251 18% 118 80940 60%
c u 478.49 81 301 15 30 2542 109257 17263 4595 549251 19% 121 80940 60%
c v 479.14 81 301 15 30 2542 109257 17263 4595 549251 19% 121 80940 60%
c w 479.88 81 301 15 30 2542 109257 17278 4595 549236 19% 121 80940 60%
c t 480.55 81 301 15 30 2542 109257 17278 4588 549236 19% 121 80940 60%
c - 495.97 83 300 15 31 2543 113093 15744 4588 549236 19% 125 80940 60%
c - 512.87 83 298 15 32 2547 118660 16199 4590 549236 19% 125 80940 60%
c - 538.02 83 297 15 33 2549 124317 16274 4594 549236 20% 126 80940 60%
c O 542.88 83 297 15 33 2550 125993 17947 4594 549236 20% 126 80940 60%
c e 544.22 83 296 15 33 2551 126760 18712 4235 570437 20% 125 74893 56%
c s 544.28 83 296 15 33 2551 126760 18712 4248 569932 20% 125 74893 56%
c e 544.31 83 296 15 33 2551 126760 18712 4239 569945 20% 125 74889 56%
c ^ 544.31 83 296 15 33 2551 126760 18712 4239 569945 20% 125 74889 56%
c - 551.43 84 295 15 34 2553 130061 13287 4239 569945 20% 124 74889 56%
c ] 575.62 84 293 16 34 2556 135459 18673 4239 569945 20% 128 74889 56%
c
c  seconds     switched    conflicts        irredundant    variables
c          MB    reductions       redundant          trail      remaining
c            level    restarts           binary          glue
c
c { 575.62 84 402 16 34 2556 135459 18673 4239 569945 31% 11 74889 56%
c - 575.69 84 401 16 35 2628 135892 13753 4253 569944 31% 11 74889 56%
c u 692.82 86 351 16 35 2778 141717 19511 4292 569944 38% 11 74889 56%
c v 693.10 86 351 16 35 2778 141717 17816 5987 569944 38% 11 74889 56%
c w 693.89 86 351 16 35 2778 141717 17926 6084 569737 38% 11 74889 56%
c t 694.45 86 351 16 35 2778 141717 17926 4301 569737 38% 11 74889 56%
c - 694.48 86 358 16 36 2778 141809 14936 4301 569737 38% 11 74889 56%
c - 772.38 86 361 16 37 2782 147811 17817 4305 569737 40% 10 74889 56%
c i 784.38 86 357 16 37 2782 148334 18335 4309 569737 41% 10 74884 56%
c i 830.03 86 348 16 37 2784 153335 23262 4323 569737 40% 10 74881 56%
c } 830.07 86 355 17 37 2784 153797 23711 4325 569737 40% 10 74881 56%
c [ 830.07 86 293 17 37 2784 153797 23711 4325 569737 20% 128 74881 56%
c B 830.07 86 293 17 37 2784 153797 23711 4325 569737 20% 128 74881 56%
c - 830.76 86 293 17 38 2784 153893 16335 4316 569737 20% 128 74881 56%
c - 863.13 86 291 17 39 2789 160058 17431 4316 569737 22% 134 74881 56%
c - 893.14 86 286 17 40 2791 166302 17500 4316 569737 22% 137 74881 56%
c - 916.35 86 283 17 41 2796 172626 17777 4318 569737 22% 139 74881 56%
c - 948.40 87 280 17 42 2798 179029 18129 4318 569737 23% 142 74881 56%
c d 949.01 87 280 17 42 2798 179160 18195 4447 569077 23% 142 74875 56%
c d 949.03 87 280 17 42 2798 179160 18081 4379 569040 23% 142 74844 56%
c
c  seconds     switched    conflicts        irredundant     variables
c          MB    reductions       redundant          trail       remaining
c            level    restarts           binary          glue
c
c u 949.88 87 280 17 42 2798 179160 18033 4424 569040 23% 142 74843 56%
c v 953.09 87 280 17 42 2798 179160 18013 4444 569040 23% 142 74843 56%
c w 953.84 87 280 17 42 2798 179160 18115 4539 568835 23% 142 74843 56%
c = 954.47 87 280 17 42 2798 179160 18115 4593 568789 23% 142 74813 56%
c d 954.51 87 280 17 42 2798 179160 18078 4521 568789 23% 142 74813 56%
c t 954.55 87 280 17 42 2798 179160 18078 4363 568789 23% 142 74813 56%
c i 954.56 87 280 17 42 2798 179160 18078 4363 568789 23% 142 74813 56%
c W 996.07 88 278 17 42 2798 185247 24159 4349 568789 24% 148 74813 56%
c - 997.44 89 278 17 43 2798 185509 18197 4349 568789 24% 148 74813 56%
c - 1032.02 89 277 17 44 2803 192070 18471 4350 568789 25% 151 74813 56%
c ] 1050.58 89 275 18 44 2805 197549 23941 4350 568789 25% 150 74813 56%
c { 1050.58 89 355 18 44 2805 197549 23941 4350 568789 40% 10 74813 56%
c - 1052.74 89 355 18 45 2809 198704 19243 4354 568789 39% 10 74813 56%
c i 1055.99 89 349 18 45 2809 202423 22919 4355 568789 37% 10 74812 56%
c - 1061.66 89 341 18 46 2809 205412 22300 4344 568789 36% 9 74811 56%
c s 1062.29 89 339 18 46 2810 209047 25835 4375 568712 33% 9 74811 56%
c e 1062.95 68 339 18 46 2810 209047 25835 3825 574617 33% 9 73986 55%
c s 1062.97 68 339 18 46 2810 209047 25835 3847 573765 33% 9 73986 55%
c e 1063.01 68 339 18 46 2810 209047 25835 3842 573805 33% 9 73979 55%
c ^ 1063.01 68 339 18 46 2810 209047 25835 3842 573805 33% 9 73979 55%
c
c   seconds     switched    conflicts        irredundant   variables
c           MB    reductions       redundant          trail     remaining
c             level    restarts           binary         glue
c
c - 1063.48 76 336 18 47 2810 212194 20517 3850 573805 32% 9 73979 55%
c - 1065.65 78 311 18 48 2810 219050 22200 3852 573805 28% 9 73979 55%
c } 1066.18 78 307 19 48 2810 219894 23042 3852 573805 28% 9 73979 55%
c [ 1066.18 78 275 19 48 2810 219894 23042 3852 573805 25% 150 73979 55%
c I 1066.42 78 276 19 48 2810 220598 23744 3852 573805 25% 150 73979 55%
c u 1072.40 84 276 19 48 2811 221535 24666 3863 573805 25% 150 73979 55%
c v 1077.55 84 276 19 48 2811 221535 24666 3863 573805 25% 150 73979 55%
c w 1078.31 84 276 19 48 2811 221535 24901 3932 573501 25% 150 73979 55%
c t 1078.83 84 276 19 48 2811 221535 24901 3871 573501 25% 150 73979 55%
c - 1085.42 84 276 19 49 2814 225978 22703 3871 573501 24% 147 73979 55%
c ] 1090.94 84 276 20 49 2815 226744 23468 3871 573501 24% 147 73979 55%
c { 1090.94 84 307 20 49 2815 226744 23468 3871 573501 28% 9 73979 55%
c i 1117.56 84 302 20 49 2830 227983 24690 3885 573501 29% 9 73974 55%
c - 1121.12 86 288 20 50 2830 232979 23390 4060 573501 27% 9 73974 55%
c i 1151.01 86 263 20 50 2830 238802 29117 4072 573501 27% 8 73973 55%
c i 1153.08 86 264 20 50 2868 238982 29285 4074 573501 27% 9 73971 55%
c i 1153.11 86 264 20 50 2868 238985 29285 4076 573501 27% 9 73970 55%
c i 1158.55 86 262 20 50 2868 239360 29650 4085 573501 27% 9 73967 55%
c i 1161.32 86 262 20 50 2868 239544 29826 4092 573501 27% 9 73965 55%
c i 1162.73 86 261 20 50 2868 239634 29908 4099 573501 27% 9 73962 55%
c
c   seconds     switched    conflicts        irredundant   variables
c           MB    reductions       redundant          trail     remaining
c             level    restarts           binary         glue
c
c i 1163.55 86 261 20 50 2868 239700 29967 4105 573501 27% 9 73961 55%
c - 1163.81 86 261 20 51 2868 240050 18946 4015 573501 27% 9 73961 55%
c i 1165.67 86 260 20 51 2868 240494 19368 4023 573501 27% 8 73960 55%
c i 1166.31 86 259 20 51 2868 240554 19416 4028 573501 27% 8 73946 55%
c i 1166.49 86 259 20 51 2868 240580 19439 4030 573501 27% 8 73868 55%
c i 1166.52 86 259 20 51 2868 240584 19440 4032 573501 27% 8 73843 55%
c i 1166.54 86 259 20 51 2868 240588 19440 4034 573501 27% 8 73842 55%
c i 1166.54 86 259 20 51 2868 240590 19440 4035 573501 27% 8 73784 55%
c } 1166.57 86 259 20 51 2868 240594 19441 4036 573501 27% 8 43854 33%
c 0 1166.57 86 259 20 51 2868 240594 19441 4036 573501 27% 8 43854 33%
c
c ---- [ result ] ------------------------------------------------------------
c
s UNSATISFIABLE
c
c ---- [ profiling ] ---------------------------------------------------------
c
c        1121.67   96.15 %  search
c         645.88   55.37 %  focused
c         475.80   40.79 %  stable
c          44.68    3.83 %  simplify
c          32.07    2.75 %  probe
c          25.15    2.16 %  vivify
c           8.54    0.73 %  walking
c           5.37    0.46 %  sweep
c           4.07    0.35 %  eliminate
c           1.22    0.10 %  substitute
c           0.72    0.06 %  reduce
c           0.34    0.03 %  subsume
c           0.22    0.02 %  transitive
c           0.21    0.02 %  parse
c           0.12    0.01 %  backbone
c           0.04    0.00 %  warmup
c =============================================
c        1166.57  100.00 %  total
c
c ---- [ statistics ] --------------------------------------------------------
c
c chronological:                         1600                1 %  conflicts
c conflicts:                           240594              206.24 per second
c decisions:                          1434582                5.96 per conflict
c eliminated:                           48178               36 %  variables
c jumped_reasons:                     9819210                0 %  propagations
c propagations:                    4070557261          3489337    per second
c queue_decisions:                     819397               57 %  decision
c random_decisions:                    400039               28 %  decision
c random_sequences:                        52             4627    interval
c reductions:                              51             4718    interval
c rephased:                                15            16040    interval
c restarts:                              2868               83.89 interval
c score_decisions:                     215146               15 %  decision
c strengthened:                         14786                0 %  checks
c substituted:                           2880                2 %  variables
c subsumed:                             23041                0 %  checks
c switched:                                20            12030    interval
c vivified:                             20632                0 %  checks
c vivify_checks:                      4376968           397906    per vivify
c vivify_units:                            20                0 %  variables
c walk_improved:                            5              100 %  walks
c walks:                                    5            48119    interval
c
c ---- [ resources ] ---------------------------------------------------------
c
c maximum-resident-set-size:         93773824 bytes         89 MB
c process-time:                        19m 27s            1166.57 seconds
c
c ---- [ shutting down ] -----------------------------------------------------
c
c exit 20
